ITEM = {item1, item2, item3, item4, item5, item6, item7, item8, item9, item10};

capacity=269;

profits = [55, 10, 47, 5, 4, 50, 8, 61, 85, 87];
weights = [95, 4, 60, 32, 23, 72, 80, 62, 65, 46];

%opt = 295
